c turning on binary mode checking
c parsing input formula with 259840 variables and 1039929 clauses
c finished parsing, read 23423107 bytes from proof file
c detected empty clause; start verification via backward checking
c 13524 of 1039929 clauses in core                            
c 13931 of 604291 lemmas in core using 86514 resolution steps
c 0 RAT lemmas in core; 665 redundant literals in core lemmas
s VERIFIED
c verification time: 2.856 seconds
